NAME: Random_70_3
ELLAPSED_TIME_(ms): 0
TOUR_SIZE: 1791.3923
TOUR_SECTION
0
9
28
4
20
53
46
51
11
5
38
52
7
29
21
17
3
64
56
23
54
27
49
40
66
55
59
18
2
1
50
6
13
31
14
26
22
57
62
24
12
45
8
68
48
65
30
32
36
10
39
34
58
44
41
61
67
25
47
37
69
42
19
33
35
63
16
60
43
15
0
EOF
